c uprop, v00.0, 
c reading from data/prog252.c.cnf
c done reading: 0.002508
p cnf 126 413
-68 -117 0
-68 -119 0
68 117 119 0
-76 117 119 0
-76 -117 -119 0
76 -117 119 0
76 117 -119 0
68 -79 0
-68 79 0
-68 -83 0
68 83 0
79 -88 0
-79 88 0
-79 -91 0
79 91 0
88 -94 0
-88 94 0
-67 -88 0
67 88 0
-72 94 0
72 -94 0
-94 -98 0
94 98 0
72 -100 0
-72 100 0
-64 -72 0
64 72 0
-63 100 0
63 -100 0
-61 -100 0
61 100 0
-60 119 0
-60 117 0
60 -117 -119 0
-59 -117 -119 0
-59 117 119 0
59 117 -119 0
59 -117 119 0
58 -60 -119 0
-58 119 0
-58 60 0
-58 60 119 0
-57 -58 0
-57 -58 119 0
-57 -58 60 0
57 58 -119 0
57 58 -60 0
-57 60 119 0
53 -58 0
-53 58 0
53 -73 0
-73 117 0
-53 73 -117 0
-53 -77 -117 0
53 -77 117 0
-53 77 117 0
53 77 -117 0
-73 80 -119 0
-80 119 0
73 -80 0
73 -80 119 0
-80 -86 0
-80 -86 119 0
73 -80 -86 0
80 86 -119 0
-73 80 86 0
73 -86 119 0
-80 92 0
80 -92 0
-56 86 0
-56 117 0
56 -86 -117 0
-51 -86 -117 0
-51 86 117 0
51 -86 117 0
51 86 -117 0
52 -92 -119 0
52 -56 -92 0
52 -56 -119 0
-52 92 119 0
-52 56 92 0
-52 56 119 0
-52 92 -101 0
-52 -101 119 0
-52 56 -101 0
52 -92 101 0
52 101 -119 0
52 -56 101 0
-56 -92 101 -119 0
56 92 -101 119 0
-52 102 0
52 -102 0
-85 101 0
-85 117 0
85 -101 -117 0
-90 -101 -117 0
-90 101 117 0
90 -101 117 0
90 101 -117 0
-102 -119 0
-85 -102 0
-85 -119 0
96 -102 0
96 -119 0
-85 96 0
-85 96 -102 -119 0
85 -96 102 119 0
-55 -117 0
-55 -59 0
55 59 117 0
59 -104 117 0
-59 -104 -117 0
59 104 -117 0
-59 104 117 0
55 -106 0
-57 -106 0
-55 57 106 0
-55 57 -108 0
55 -57 -108 0
55 57 108 0
-55 -57 108 0
106 -109 0
-77 -109 0
77 -106 109 0
77 -106 -111 0
-77 106 -111 0
77 106 111 0
-77 -106 111 0
109 -112 0
-51 -112 0
51 -109 112 0
51 -109 -114 0
-51 109 -114 0
51 109 114 0
-51 -109 114 0
-65 112 0
-65 -90 0
65 90 -112 0
-70 90 -112 0
-70 -90 112 0
70 90 112 0
70 -90 -112 0
65 -115 0
-96 -115 0
-65 96 115 0
-65 -75 96 0
65 -75 -96 0
65 75 96 0
-65 75 -96 0
-78 115 0
78 -115 0
-82 -115 0
82 115 0
78 -87 0
-78 87 0
-78 -116 0
78 116 0
87 -93 0
-87 93 0
-87 -118 0
87 118 0
93 -120 0
-93 120 0
-93 -121 0
93 121 0
120 -122 0
-120 122 0
-120 -123 0
120 123 0
122 -124 0
-122 124 0
-122 -125 0
122 125 0
124 -126 0
-124 126 0
-50 -124 0
50 124 0
-48 -49 0
-47 -48 0
47 48 49 0
-46 47 49 0
-46 -47 -49 0
46 47 -49 0
46 -47 49 0
-45 48 0
45 -48 0
-44 -48 0
44 48 0
-43 45 0
43 -45 0
-42 -45 0
42 45 0
-41 43 0
41 -43 0
-40 -43 0
40 43 0
-39 41 0
39 -41 0
-38 -41 0
38 41 0
-37 39 0
37 -39 0
-36 -39 0
36 39 0
-35 37 0
35 -37 0
-34 -37 0
34 37 0
-33 47 0
-33 49 0
33 -47 -49 0
-32 -47 -49 0
-32 47 49 0
32 -47 49 0
32 47 -49 0
31 -33 -47 0
-31 47 0
-31 33 0
-31 33 47 0
-30 -31 0
-30 -31 47 0
-30 -31 33 0
30 31 -47 0
30 31 -33 0
-30 33 47 0
29 -31 0
-29 31 0
30 -66 0
49 -66 0
-30 -49 66 0
-30 -49 -71 0
30 49 -71 0
-30 49 71 0
30 -49 71 0
-29 -47 97 0
-29 -66 97 0
-47 -66 97 0
29 47 -97 0
29 66 -97 0
47 66 -97 0
29 -97 -99 0
47 -97 -99 0
66 -97 -99 0
-29 97 99 0
-47 97 99 0
-66 97 99 0
-29 -47 -66 99 0
29 47 66 -99 0
62 -97 0
-62 97 0
-28 62 0
-28 49 0
28 -49 -62 0
-27 -49 -62 0
-27 49 62 0
27 49 -62 0
27 -49 62 0
26 -28 -47 0
-26 47 0
-26 28 0
-26 28 47 0
-25 -26 0
-25 -26 47 0
-25 -26 28 0
25 26 -47 0
25 26 -28 0
-25 28 47 0
24 -26 0
-24 26 0
-23 25 0
-23 49 0
23 -25 -49 0
-22 -25 -49 0
-22 25 49 0
22 -25 49 0
22 25 -49 0
-24 -47 0
-23 -24 0
-23 -47 0
21 -24 0
21 -47 0
21 -23 0
21 -23 -24 -47 0
-21 23 24 47 0
-20 -49 0
-20 -32 0
20 32 49 0
-19 32 49 0
-19 -32 -49 0
19 32 -49 0
19 -32 49 0
-18 20 0
-18 -71 0
18 -20 71 0
-17 -20 71 0
-17 20 -71 0
17 20 71 0
17 -20 -71 0
-16 18 0
-16 -99 0
16 -18 99 0
-15 -18 99 0
-15 18 -99 0
15 18 99 0
15 -18 -99 0
-14 16 0
-14 -27 0
14 -16 27 0
-16 27 -84 0
16 -27 -84 0
16 27 84 0
-16 -27 84 0
14 -89 0
-22 -89 0
-14 22 89 0
-13 -14 22 0
-13 14 -22 0
13 14 22 0
13 -14 -22 0
89 -95 0
-21 -95 0
21 -89 95 0
-12 21 -89 0
-12 -21 89 0
12 21 89 0
12 -21 -89 0
-11 95 0
11 -95 0
-10 -95 0
10 95 0
-9 11 0
9 -11 0
-8 -11 0
8 11 0
-7 9 0
7 -9 0
-6 -9 0
6 9 0
-5 7 0
5 -7 0
-4 -7 0
4 7 0
-3 5 0
3 -5 0
-2 -5 0
2 5 0
-1 3 0
1 -3 0
-3 -54 0
3 54 0
1 -103 0
-1 103 0
-1 -105 0
1 105 0
-107 117 0
49 -107 0
-49 107 -117 0
49 -117 0
-49 117 0
-32 -59 110 0
-59 -107 110 0
-32 -107 110 0
32 59 -110 0
59 107 -110 0
32 107 -110 0
-59 110 0
-32 110 0
-107 110 0
-32 -59 -107 0
-57 -71 113 0
-57 -110 113 0
-71 -110 113 0
57 71 -113 0
57 110 -113 0
71 110 -113 0
57 -113 0
71 -113 0
110 -113 0
57 71 110 0
69 -77 -99 0
69 -77 -113 0
69 -99 -113 0
-69 77 99 0
-69 77 113 0
-69 99 113 0
-69 77 0
-69 99 0
-69 113 0
77 99 113 0
-27 -51 74 0
-51 -69 74 0
-27 -69 74 0
27 51 -74 0
51 69 -74 0
27 69 -74 0
-51 74 0
-27 74 0
-69 74 0
-27 -51 -69 0
-22 81 -90 0
-74 81 -90 0
-22 -74 81 0
22 -81 90 0
74 -81 90 0
22 74 -81 0
-81 90 0
22 -81 0
74 -81 0
22 74 90 0
-21 -96 0
-81 -96 0
-21 -81 0
21 81 96 0
